5	6	7	8	9	10	11	12	13	14	15	16	17	18	19	20	21	22	23	24
	0	2	1	2	7	3	7	3	7	3	4	0	0	0	5	5	7	3	0
	6	7	7	8	15	11	15	11	15	11	8	4	4	4	11	11	15	15
	14	11	13	15	23	19	23	19	23	19	16	8	8	8	17	17	23	30
	22	17	19	21	31	27	31	27	31	27	24	12	12	12	23	23	31	45
	27	22	25	27	39	35	39	35	39	35	32	16	16	16	29	29	38
	32	28	31	35	47	43	47	43	47	43	36	20	20	20	35	35	45
	37	34	39	43	55	51	55	51	55	51	40	24	24	24	41	41	49
	42	38	47	51		59		59		59	44	28	30	29	47	47	55
	47	44	55	59							48	32	36	35	53	53
	52	49									52	36	42	41	59	59
	56	55									56	40	48	47
												44	52	53
												48	56	59
												52
												56
